c b=8,c=1639
p cnf 27 1378
1 2 3 4 6 7 8 -16 0
1 2 3 4 5 7 8 -17 0
1 2 3 4 5 6 8 -18 0
1 2 3 4 5 7 8 -21 0
1 2 3 4 5 6 8 -22 0
4 5 7 8 -25 0
5 6 8 -26 0
1 2 3 4 6 7 -8 16 0
1 2 3 4 6 -8 17 0
1 2 3 5 6 7 -8 18 0
1 2 3 4 6 7 -8 21 0
2 3 5 6 7 -8 22 0
6 7 -8 25 0
6 7 -8 26 0
1 2 3 5 6 7 -15 0
1 2 3 4 5 6 7 -19 0
1 2 3 5 6 7 -20 0
2 3 4 5 6 7 -23 0
3 5 6 7 -24 0
6 7 -27 0
1 2 3 5 -7 8 16 0
1 2 4 5 6 8 -19 0
1 2 4 5 6 -7 8 21 0
2 4 5 6 8 -23 0
5 6 -7 8 25 0
8 -27 0
1 2 3 5 -7 -8 -16 0
1 2 4 5 6 -7 -8 19 0
1 2 3 5 6 -7 -8 -21 0
4 5 6 -7 -8 23 0
4 5 6 -7 -8 -25 0
-7 -8 27 0
1 2 3 5 6 -7 15 0
1 2 3 4 5 6 -7 17 0
1 2 3 5 6 -7 -18 0
1 2 3 4 5 6 -7 20 0
1 2 3 5 6 -7 -22 0
4 5 6 -7 24 0
5 6 -7 -26 0
1 2 4 5 6 -14 0
1 2 3 4 5 -6 8 16 0
1 2 3 4 5 -6 8 19 0
1 3 4 5 -6 7 8 20 0
3 4 5 -6 8 23 0
4 5 -6 7 8 24 0
1 2 3 4 5 -6 -8 -16 0
1 2 4 5 -6 -8 -19 0
1 2 3 5 7 -8 -20 0
2 4 5 -6 -8 -23 0
3 5 7 -8 -24 0
-6 -8 27 0
1 2 4 -6 7 15 0
1 3 4 5 -6 7 -18 0
1 2 3 4 5 -6 7 -21 0
1 3 4 5 -6 7 -22 0
4 5 -6 7 -25 0
-6 7 -26 0
1 2 4 5 -6 -7 8 -20 0
1 2 4 5 -6 8 -21 0
3 4 5 -6 -7 8 22 0
3 4 5 -6 -7 8 -24 0
4 5 -6 8 -25 0
-6 -7 8 26 0
1 2 3 4 5 -7 -8 20 0
1 2 4 5 -6 -7 -8 21 0
1 2 3 4 5 -6 -8 -22 0
4 5 -7 -8 24 0
5 -6 -7 -8 25 0
5 -6 -8 -26 0
1 2 4 -6 -7 -15 0
1 3 4 5 -6 -7 18 0
1 2 4 5 -6 14 0
1 2 3 4 5 -6 -17 0
1 3 4 5 -13 0
1 2 3 4 -5 8 -16 0
2 3 4 -5 6 8 -17 0
1 2 3 4 -5 7 8 18 0
2 3 4 -5 6 7 8 19 0
1 2 3 4 -5 6 8 -20 0
2 3 4 -5 6 8 -21 0
2 3 4 -5 7 8 22 0
3 4 -5 6 7 8 23 0
3 4 -5 6 8 -24 0
-5 6 8 -25 0
7 8 -26 0
1 2 3 4 -5 -8 16 0
1 2 3 -5 6 7 -8 -18 0
2 3 4 -5 6 -8 -19 0
1 2 3 -5 6 7 -8 20 0
1 2 3 4 -5 6 -8 21 0
1 2 3 -5 6 7 -8 -22 0
2 3 4 -5 6 -8 -23 0
-5 6 7 -8 24 0
-5 6 -8 25 0
1 2 3 4 -5 7 15 0
1 3 4 -5 -7 8 -18 0
1 3 4 -5 -7 8 -22 0
-5 -7 8 26 0
1 2 3 -5 6 -7 -8 18 0
2 3 -5 6 -7 -8 22 0
6 -7 -8 -26 0
1 2 3 4 -5 -7 -15 0
1 2 3 4 -5 6 -7 -19 0
1 2 3 -5 6 -7 -20 0
2 3 4 -5 6 -7 -23 0
3 -5 6 -7 -24 0
1 3 -5 6 14 0
2 3 4 -5 -6 8 17 0
1 3 4 -5 -6 7 8 -19 0
2 3 4 -5 -6 7 8 21 0
2 3 4 -5 -6 7 8 -23 0
-5 -6 7 8 25 0
1 2 3 4 -6 -8 -17 0
2 3 4 -5 -6 7 -8 19 0
2 3 4 -5 -6 -8 -21 0
3 4 -5 -6 7 -8 23 0
-5 -6 -8 -25 0
1 2 3 -5 -6 7 18 0
1 3 4 -5 -6 7 -20 0
2 3 4 -5 -6 7 22 0
3 4 -5 -6 7 -24 0
1 2 3 4 -6 -7 8 19 0
1 3 4 -5 -6 -7 8 20 0
3 4 -6 -7 8 23 0
4 -5 -6 -7 8 24 0
1 2 3 4 -5 -7 -8 -19 0
1 2 3 4 -5 -6 -8 -20 0
2 3 4 -5 -7 -8 -23 0
3 4 -5 -6 -8 -24 0
1 3 4 -5 -6 -7 -18 0
1 2 3 4 -5 -6 -7 -21 0
1 3 4 -5 -6 -7 -22 0
4 -5 -6 -7 -25 0
-5 -6 -7 26 0
1 3 -5 -6 -14 0
1 3 4 -5 13 0
2 3 4 -12 0
1 2 3 -4 5 7 8 -16 0
1 2 3 -4 6 7 8 17 0
1 2 3 -4 5 7 8 -19 0
1 2 3 -4 6 7 8 21 0
2 3 -4 5 7 8 -23 0
6 7 8 -25 0
1 2 3 -4 5 7 -8 16 0
1 2 -4 5 6 -8 -17 0
1 2 3 -4 6 7 -8 19 0
1 2 3 -4 6 -8 -21 0
3 -4 6 7 -8 23 0
-4 6 -8 25 0
1 2 3 -4 7 -15 0
1 2 3 -4 5 6 7 18 0
1 2 3 -4 5 7 -20 0
2 3 -4 5 6 7 22 0
3 -4 5 7 -24 0
1 2 -4 5 6 -7 8 19 0
1 2 3 -4 5 -7 8 20 0
-4 5 6 -7 8 23 0
-4 5 -7 8 24 0
1 2 -4 5 6 -7 -8 -19 0
1 2 3 -4 5 6 -8 -20 0
-4 5 6 -7 -8 -23 0
3 -4 5 6 -8 -24 0
1 2 3 -4 -7 15 0
1 2 -4 5 6 -7 -17 0
1 2 3 -4 5 -7 -18 0
1 2 3 -4 5 6 -7 -21 0
1 2 3 -4 5 -7 -22 0
-4 5 6 -7 25 0
1 2 3 -4 6 14 0
2 3 -4 -6 7 8 -17 0
1 2 3 -4 5 -6 8 -18 0
2 3 -4 -6 7 8 -21 0
1 2 3 -4 5 -6 8 -22 0
-4 -6 7 8 25 0
2 3 -4 5 -6 -8 17 0
1 2 3 -4 5 7 -8 18 0
1 2 3 -4 -6 7 -8 21 0
2 3 -4 5 7 -8 22 0
-6 7 -8 -25 0
1 2 3 -4 5 -6 7 -19 0
2 3 -4 5 -6 7 -23 0
1 2 -4 5 -6 8 -19 0
1 2 -4 5 -6 -7 8 21 0
2 -4 5 -6 8 -23 0
5 -6 -7 8 -25 0
1 2 -4 5 -6 -7 -8 19 0
1 2 3 -4 5 -7 -8 -21 0
-4 5 -6 -7 -8 23 0
-4 5 -7 -8 25 0
1 2 3 -4 5 -6 -7 17 0
1 2 3 -4 5 -6 -7 20 0
-4 5 -6 -7 24 0
1 2 3 -4 -6 -14 0
2 -4 5 13 0
1 2 3 -4 -5 7 8 16 0
2 3 -4 -5 6 8 -19 0
1 2 3 -4 -5 6 8 21 0
2 3 -4 -5 6 8 -23 0
1 2 3 -4 -5 7 -8 -16 0
1 2 3 -4 -5 6 -8 19 0
3 -4 -5 6 -8 23 0
1 2 3 -4 -5 6 7 17 0
1 2 3 -4 -5 6 7 -18 0
1 2 3 -4 -5 6 7 20 0
1 2 3 -4 -5 6 7 -22 0
-4 -5 6 7 24 0
1 2 3 -5 -7 8 -16 0
1 2 -4 -5 6 8 17 0
1 2 3 -5 -7 -8 16 0
1 2 -4 6 -7 -8 -17 0
1 2 3 -4 -5 6 -7 18 0
1 2 3 -4 -5 -7 -20 0
2 3 -4 -5 6 -7 22 0
3 -4 -5 -7 -24 0
2 3 -4 -5 -6 7 8 19 0
1 2 3 -4 -5 -6 8 -20 0
2 3 -4 -5 -6 8 -21 0
2 3 -5 -6 7 8 22 0
3 -4 -5 -6 7 8 23 0
3 -4 -5 -6 8 -24 0
-4 -5 -6 8 25 0
2 3 -4 -5 -6 -8 -19 0
1 2 3 -4 -5 7 -8 20 0
1 2 3 -4 -5 -6 -8 21 0
1 2 3 -4 -5 7 -8 -22 0
2 3 -4 -5 -6 -8 -23 0
-4 -5 7 -8 24 0
2 3 -4 -5 -6 7 -17 0
2 3 -4 -5 -6 8 -17 0
1 2 3 -4 -6 -7 8 -18 0
1 2 3 -4 -6 -7 8 -22 0
1 2 3 -4 -6 -7 -8 17 0
1 2 3 -4 -5 -6 -8 18 0
2 3 -4 -5 -7 -8 22 0
1 2 3 -4 -5 -6 -7 -19 0
2 3 -4 -5 -6 -7 -23 0
2 -4 -5 -13 0
2 3 -4 12 0
1 2 3 -11 0
1 2 -3 5 6 7 8 16 0
1 2 -3 4 6 8 -19 0
1 2 -3 4 5 6 8 21 0
2 -3 4 6 8 -23 0
1 2 -3 5 6 7 -8 -16 0
1 2 -3 4 5 6 -8 19 0
1 2 -3 4 5 6 -8 -21 0
-3 4 5 6 -8 23 0
1 2 -3 4 6 7 -15 0
1 2 -3 4 5 6 7 17 0
1 2 -3 5 6 7 -18 0
1 2 -3 4 5 6 7 20 0
1 2 -3 5 6 7 -22 0
4 5 6 7 -24 0
1 -3 4 5 -7 8 -16 0
1 2 -3 4 5 6 8 17 0
1 -3 4 5 -7 -8 16 0
1 2 -3 5 6 -7 -8 -17 0
1 2 -3 4 6 -7 15 0
1 2 -3 5 6 -7 18 0
1 2 -3 4 5 -7 -20 0
2 -3 4 5 6 -7 22 0
-3 4 5 -7 24 0
1 2 -3 6 -14 0
1 -3 4 5 -6 8 -16 0
1 2 -3 4 -6 8 -17 0
1 -3 4 5 -6 7 8 18 0
1 2 -3 4 -6 7 8 19 0
1 2 -3 4 5 -6 8 -20 0
1 2 -3 4 -6 8 -21 0
-3 4 5 -6 7 8 22 0
-3 4 -6 7 8 23 0
-3 4 5 -6 8 24 0
1 -3 4 5 -6 -8 16 0
1 2 -3 4 5 -6 -8 17 0
1 2 -3 5 7 -8 -18 0
1 2 -3 4 -6 -8 -19 0
1 2 -3 4 5 7 -8 20 0
1 2 -3 4 5 -6 -8 21 0
1 2 -3 5 7 -8 -22 0
2 -3 4 -6 -8 -23 0
4 5 7 -8 -24 0
1 -3 4 5 -6 -7 8 -18 0
-3 4 5 -6 -7 8 -22 0
1 2 -3 5 -7 -8 18 0
2 -3 4 5 -7 -8 22 0
1 2 -3 4 5 -6 -7 -19 0
2 -3 4 5 -6 -7 -23 0
1 2 -3 -6 14 0
1 2 -3 5 13 0
1 2 -3 -5 6 7 8 -16 0
1 2 -3 4 -5 7 8 -17 0
1 2 -3 4 -5 6 8 -18 0
1 2 -3 4 -5 7 8 -21 0
1 2 -3 4 -5 6 8 -22 0
1 2 -3 -5 6 7 -8 16 0
1 2 4 -5 6 -8 17 0
1 2 -3 -5 6 7 -8 18 0
1 2 4 -5 6 7 -8 21 0
2 -3 -5 6 7 -8 22 0
1 2 -3 4 -5 6 7 -19 0
1 2 -3 -5 6 7 -20 0
2 -3 4 -5 6 7 -23 0
-3 -5 6 7 24 0
1 2 -3 4 -5 -7 8 16 0
1 2 -3 4 6 -7 8 21 0
1 2 -3 4 -5 -7 -8 -16 0
1 2 -3 4 6 -7 -8 19 0
1 2 -3 4 6 -7 -8 -21 0
-3 4 6 -7 -8 23 0
1 2 -3 4 -5 6 -7 17 0
1 2 -3 -5 6 -7 -18 0
1 2 -3 4 -5 6 -7 20 0
1 2 -3 -5 6 -7 -22 0
4 -5 6 -7 -24 0
1 2 -3 4 -5 -6 8 16 0
1 2 -3 4 -5 -6 8 19 0
1 -3 4 -5 -6 7 8 20 0
-3 4 -5 -6 8 23 0
4 -5 -6 7 8 -24 0
1 2 -3 4 -5 -6 -8 -16 0
1 2 -3 -5 7 -8 -20 0
-3 -5 7 -8 24 0
1 -3 4 -5 -6 7 -18 0
1 2 -3 4 -5 -6 7 -21 0
1 -3 4 -5 -6 7 -22 0
1 2 -3 4 -6 -7 8 -20 0
-3 4 -5 -6 -7 8 22 0
-3 4 -6 -7 8 24 0
1 2 -3 4 -5 -7 -8 20 0
1 2 -3 4 -6 -7 -8 21 0
1 2 -3 4 -5 -6 -8 -22 0
4 -5 -7 -8 -24 0
1 -3 4 -5 -6 -7 18 0
1 2 -3 4 -5 -6 -17 0
1 2 -3 -5 -13 0
1 -3 4 12 0
1 2 -3 -4 5 6 8 16 0
1 2 -3 -4 5 6 8 19 0
1 2 -3 -4 5 7 8 20 0
-3 -4 5 6 8 23 0
-4 5 7 8 -24 0
1 2 -3 -4 5 6 -8 -16 0
1 2 -3 -4 5 6 -8 -19 0
1 2 -3 -4 6 7 -8 -20 0
-3 -4 5 6 -8 -23 0
-3 -4 6 7 -8 24 0
1 2 -3 -4 6 7 15 0
1 2 -3 -4 5 7 -18 0
1 2 -3 -4 5 6 7 -21 0
1 2 -3 -4 5 7 -22 0
1 2 -3 5 -7 8 -20 0
1 2 -3 -4 5 6 8 -21 0
2 -3 -4 5 -7 8 22 0
-3 5 -7 8 24 0
1 2 -3 -4 5 6 -7 -8 20 0
1 2 -3 -4 5 6 -7 -8 21 0
1 2 -3 -4 5 6 -8 -22 0
-4 5 6 -7 -8 -24 0
1 2 -3 -4 6 -7 -15 0
1 2 -3 -4 5 -7 18 0
1 2 -3 -4 5 6 -17 0
1 -3 -4 5 7 8 16 0
1 2 -3 -4 -6 8 -19 0
1 2 -3 -4 5 -6 8 21 0
2 -3 -4 -6 8 -23 0
1 -3 -4 5 7 -8 -16 0
1 2 -3 -4 5 -6 -8 19 0
1 2 -3 -4 5 -6 -8 -21 0
-3 -4 5 -6 -8 23 0
1 2 -4 -6 7 -15 0
1 2 -3 -4 5 -6 7 17 0
1 2 -3 -4 5 -6 7 20 0
-4 5 -6 7 -24 0
1 -3 5 -6 -7 8 -16 0
1 2 -3 -4 5 -6 8 17 0
1 -3 5 -6 -7 -8 16 0
1 2 -3 -4 5 -7 -8 -17 0
1 2 -4 -6 -7 15 0
1 2 -3 5 -6 -7 -20 0
2 -3 -4 5 -6 -7 22 0
-3 5 -6 -7 24 0
1 2 -3 -4 -5 6 8 -16 0
1 2 -3 -4 -5 7 8 -19 0
1 2 -4 -5 6 7 8 21 0
2 -3 -4 -5 7 8 -23 0
1 2 -3 -4 -5 6 -8 16 0
1 2 -3 -4 6 -8 -17 0
1 2 -4 -5 6 7 -8 19 0
1 2 -4 -5 6 -8 -21 0
-4 -5 6 7 -8 23 0
1 2 -3 -4 -5 6 7 18 0
1 2 -3 -4 -5 7 -20 0
2 -3 -4 -5 6 7 22 0
-3 -4 -5 7 24 0
1 2 -3 -4 6 -7 8 19 0
1 2 -3 -4 -5 -7 8 20 0
-3 -4 6 -7 8 23 0
-4 -5 -7 8 -24 0
1 2 -3 -4 6 -7 -8 -19 0
1 2 -3 -4 -5 6 -8 -20 0
-3 -4 6 -7 -8 -23 0
-3 -4 -5 6 -8 24 0
1 2 -3 -4 -5 -7 -18 0
1 2 -3 -4 -5 6 -7 -21 0
1 2 -3 -4 -5 -7 -22 0
1 2 -3 -4 -5 7 8 -16 0
1 2 -3 -5 -6 7 8 -17 0
1 2 -3 -4 -5 -6 8 -18 0
1 2 -3 -5 -6 7 8 -21 0
1 2 -3 -4 -5 -6 8 -22 0
1 2 -3 -4 -5 7 -8 16 0
1 2 -3 -4 -5 -6 -8 17 0
1 2 -3 -4 -5 7 -8 18 0
1 2 -4 -5 -6 7 -8 21 0
2 -3 -4 -5 7 -8 22 0
1 2 -3 -4 -5 -6 7 -19 0
2 -3 -4 -5 -6 7 -23 0
1 2 -3 -5 -6 -7 8 16 0
1 2 -3 -4 -6 -7 8 21 0
1 2 -3 -5 -6 -7 -8 -16 0
1 2 -3 -4 -6 -7 -8 19 0
1 2 -3 -4 -5 -7 -8 -21 0
-3 -4 -6 -7 -8 23 0
1 2 -3 -4 -5 -6 -7 17 0
1 2 -3 -4 -5 -6 -7 20 0
-4 -5 -6 -7 -24 0
1 -3 -4 -12 0
1 2 -3 11 0
1 2 -10 0
1 -2 3 4 5 6 8 16 0
1 -2 3 4 5 6 8 19 0
1 -2 3 4 5 7 8 20 0
3 4 5 6 8 -23 0
1 -2 3 4 5 6 -8 -16 0
1 -2 4 5 6 -8 -19 0
1 -2 3 4 6 7 -8 -20 0
-2 4 5 6 -8 23 0
1 -2 4 5 6 7 15 0
1 -2 3 4 5 7 -18 0
1 -2 3 4 5 6 7 -21 0
1 -2 3 4 5 7 -22 0
1 -2 3 4 5 -7 8 -20 0
1 -2 4 5 6 8 -21 0
-2 3 4 5 -7 8 22 0
1 -2 3 5 6 -7 -8 20 0
1 -2 4 5 6 -7 -8 21 0
1 -2 3 4 5 6 -8 -22 0
1 -2 4 5 6 -7 -15 0
1 -2 3 4 5 -7 18 0
1 -2 3 5 6 -14 0
1 -2 3 4 5 6 -17 0
1 -2 3 4 5 7 8 16 0
1 -2 3 4 -6 8 -19 0
1 -2 3 4 5 -6 8 21 0
-2 3 4 -6 8 23 0
1 -2 3 4 5 7 -8 -16 0
1 -2 3 4 5 -6 -8 19 0
1 -2 4 5 -6 -8 -21 0
3 4 5 -6 -8 -23 0
-2 3 4 -6 7 -15 0
1 -2 3 4 5 -6 7 17 0
1 -2 3 4 5 -6 7 20 0
1 -2 4 5 -6 -7 8 -16 0
1 -2 4 5 -6 8 17 0
1 -2 4 5 -6 -7 -8 16 0
1 -2 3 4 5 -7 -8 -17 0
-2 3 4 -6 -7 15 0
1 -2 3 4 5 -6 -7 -20 0
-2 3 4 5 -6 -7 22 0
1 -2 3 5 -6 14 0
1 -2 5 -13 0
1 -2 3 -5 7 8 -16 0
-2 3 4 -5 6 7 8 17 0
1 -2 3 4 -5 7 8 -19 0
-2 3 4 -5 6 7 8 21 0
-2 3 4 -5 7 8 23 0
1 -2 3 -5 7 -8 16 0
1 -2 3 4 6 -8 -17 0
-2 3 4 -5 6 7 -8 19 0
-2 3 4 -5 6 -8 -21 0
3 4 -5 6 7 -8 -23 0
-2 3 4 -5 7 -15 0
1 -2 3 4 -5 6 7 18 0
1 -2 3 4 -5 7 -20 0
-2 3 4 -5 6 7 22 0
1 -2 3 4 -5 -7 8 16 0
1 -2 3 4 6 -7 8 19 0
1 -2 3 4 -5 -7 8 20 0
3 4 6 -7 8 -23 0
1 -2 3 4 -5 -7 -8 -16 0
1 -2 4 6 -7 -8 -19 0
1 -2 3 4 -5 6 -8 -20 0
-2 4 6 -7 -8 23 0
-2 3 4 -5 -7 15 0
1 -2 3 4 6 -7 -17 0
1 -2 3 4 -5 -7 -18 0
1 -2 3 4 -5 6 -7 -21 0
1 -2 3 4 -5 -7 -22 0
-2 3 4 -5 -6 7 8 -17 0
1 -2 3 4 -5 -6 8 -18 0
-2 3 4 -5 -6 7 8 -21 0
1 -2 3 4 -5 -6 8 -22 0
1 -2 3 4 -5 -6 -8 17 0
1 -2 3 4 -5 7 -8 18 0
-2 3 4 -5 -6 7 -8 21 0
-2 3 4 -5 7 -8 22 0
1 -2 3 4 -5 -6 7 -19 0
-2 3 4 -5 -6 7 23 0
1 -2 3 4 -6 -7 8 21 0
1 -2 3 4 -6 -7 -8 19 0
1 -2 3 4 -5 -7 -8 -21 0
3 4 -6 -7 -8 -23 0
1 -2 3 4 -5 -6 -7 17 0
1 -2 3 4 -5 -6 -7 20 0
1 -2 -5 13 0
1 -2 4 12 0
1 -2 3 -4 6 7 8 -16 0
1 -2 3 -4 5 7 8 -17 0
1 -2 3 -4 5 6 8 -18 0
1 -2 3 -4 5 7 8 -21 0
1 -2 3 -4 5 6 8 -22 0
1 -2 3 -4 6 7 -8 16 0
1 -2 3 -4 6 -8 17 0
1 3 -4 5 6 7 -8 18 0
1 -2 3 -4 6 7 -8 21 0
3 -4 5 6 7 -8 22 0
1 -2 -4 5 6 7 -15 0
1 -2 3 -4 5 6 7 -19 0
1 3 -4 5 6 7 -20 0
-2 3 -4 5 6 7 23 0
1 3 -4 5 -7 8 16 0
1 -2 -4 5 6 8 -19 0
1 -2 -4 5 6 -7 8 21 0
-2 -4 5 6 8 23 0
1 3 -4 5 -7 -8 -16 0
1 -2 -4 5 6 -7 -8 19 0
1 -2 -4 5 6 -7 -8 -21 0
1 -2 -4 5 6 -7 15 0
1 -2 3 -4 5 6 -7 17 0
1 3 -4 5 6 -7 -18 0
1 -2 3 -4 5 6 -7 20 0
1 3 -4 5 6 -7 -22 0
1 -2 3 -4 5 -6 8 16 0
1 -2 3 -4 5 -6 8 19 0
1 -2 3 5 -6 7 8 20 0
3 -4 5 -6 8 -23 0
1 -2 3 -4 5 -6 -8 -16 0
1 -2 -4 5 -6 -8 -19 0
1 3 -4 5 7 -8 -20 0
-2 -4 5 -6 -8 23 0
1 -2 3 -4 -6 7 15 0
1 -2 3 5 -6 7 -18 0
1 -2 3 -4 5 -6 7 -21 0
1 -2 3 5 -6 7 -22 0
1 -2 3 5 -6 -7 8 -20 0
1 -2 -4 5 -6 8 -21 0
-2 3 5 -6 -7 8 22 0
1 -2 3 -4 5 -7 -8 20 0
1 -2 -4 5 -6 -7 -8 21 0
1 -2 3 -4 5 -6 -8 -22 0
1 -2 3 -4 -6 -7 -15 0
1 -2 3 5 -6 -7 18 0
1 -2 3 -4 5 -6 -17 0
1 -2 3 -4 -5 8 -16 0
-2 3 -4 -5 6 8 -17 0
1 -2 3 -4 -5 7 8 18 0
-2 3 -4 -5 6 7 8 19 0
1 -2 3 -4 -5 6 8 -20 0
-2 3 -4 -5 6 8 -21 0
-2 3 -4 -5 7 8 22 0
3 -4 -5 6 7 8 -23 0
1 -2 3 -4 -5 -8 16 0
1 3 -4 -5 6 7 -8 -18 0
-2 3 -4 -5 6 -8 -19 0
1 3 -4 -5 6 7 -8 20 0
1 -2 3 -4 -5 6 -8 21 0
1 3 -4 -5 6 7 -8 -22 0
1 -2 3 -4 -5 7 15 0
1 -2 3 -5 -7 8 -18 0
1 -2 3 -5 -7 8 -22 0
1 3 -4 -5 6 -7 -8 18 0
3 -4 -5 6 -7 -8 22 0
1 -2 3 -4 -5 -7 -15 0
1 -2 3 -4 -5 6 -7 -19 0
1 3 -4 -5 6 -7 -20 0
-2 3 -4 -5 6 -7 23 0
-2 3 -4 -5 -6 8 17 0
1 -2 3 -5 -6 7 8 -19 0
-2 3 -4 -5 -6 7 8 21 0
-2 3 -5 -6 7 8 23 0
1 -2 3 -4 -6 -8 -17 0
-2 3 -4 -5 -6 7 -8 19 0
-2 3 -4 -5 -6 -8 -21 0
3 -4 -5 -6 7 -8 -23 0
1 3 -4 -5 -6 7 18 0
1 -2 3 -5 -6 7 -20 0
-2 3 -4 -5 -6 7 22 0
1 -2 3 -4 -6 -7 8 19 0
1 -2 3 -5 -6 -7 8 20 0
3 -4 -6 -7 8 -23 0
1 -2 3 -4 -5 -7 -8 -19 0
1 -2 3 -4 -5 -6 -8 -20 0
-2 3 -4 -5 -7 -8 23 0
1 -2 3 -5 -6 -7 -18 0
1 -2 3 -4 -5 -6 -7 -21 0
1 -2 3 -5 -6 -7 -22 0
1 -2 -4 -12 0
-2 3 11 0
1 -2 -3 4 5 8 -16 0
1 -2 -3 4 6 8 -17 0
1 -2 -3 4 5 7 8 18 0
1 -2 -3 4 6 7 8 19 0
1 -2 -3 4 5 6 8 -20 0
1 -2 -3 4 6 8 -21 0
-2 -3 4 5 7 8 22 0
-3 4 6 7 8 -23 0
1 -2 -3 4 5 -8 16 0
1 -2 -3 4 5 6 -8 17 0
1 -2 -3 4 6 7 -8 -18 0
1 -2 -3 4 6 -8 -19 0
1 -2 -3 5 6 7 -8 20 0
1 -2 -3 4 5 6 -8 21 0
1 -2 -3 4 6 7 -8 -22 0
-2 -3 4 6 -8 23 0
1 -2 -3 4 5 7 15 0
1 -2 -3 4 5 -7 8 -18 0
-2 -3 4 5 -7 8 -22 0
1 -2 -3 4 6 -7 -8 18 0
-2 -3 5 6 -7 -8 22 0
1 -2 -3 4 5 -7 -15 0
1 -2 -3 4 5 6 -7 -19 0
1 -2 -3 5 6 -7 -20 0
-2 -3 4 5 6 -7 23 0
1 -2 -3 5 6 14 0
1 -2 -3 4 -6 8 17 0
1 -2 4 -6 7 8 -19 0
1 -2 -3 4 -6 7 8 21 0
-2 4 -6 7 8 23 0
1 -2 -3 4 5 -6 -8 -17 0
1 -2 -3 4 -6 7 -8 19 0
1 -2 -3 4 -6 -8 -21 0
-3 4 -6 7 -8 -23 0
1 -2 -3 5 -6 7 18 0
1 -2 -3 4 5 -6 7 -20 0
-2 -3 4 5 -6 7 22 0
1 -2 -3 4 5 -6 -7 8 19 0
1 -2 -3 4 5 -6 -7 8 20 0
-3 4 5 -6 -7 8 -23 0
1 -2 -3 4 5 -7 -8 -19 0
1 -2 -3 4 5 -6 -8 -20 0
-2 -3 4 5 -7 -8 23 0
1 -2 -3 4 5 -6 -7 -18 0
1 -2 -3 4 5 -6 -7 -21 0
-2 -3 4 5 -6 -7 -22 0
1 -2 -3 5 -6 -14 0
1 -2 -3 4 -5 6 8 16 0
1 -2 -3 4 -5 6 8 19 0
1 -2 -3 4 -5 7 8 20 0
-3 4 -5 6 8 -23 0
1 -2 -3 4 -5 6 -8 -16 0
1 -3 -5 6 7 -8 -20 0
-2 -3 4 6 7 15 0
1 -2 -3 4 -5 7 -18 0
1 -2 -3 4 -5 6 7 -21 0
1 -2 -3 4 -5 7 -22 0
1 -2 -3 4 -5 -7 8 -20 0
-2 -3 4 -5 -7 8 22 0
1 -2 -3 -5 6 -7 -8 20 0
1 -2 -3 4 6 -7 -8 21 0
1 -2 -3 4 -5 6 -8 -22 0
-2 -3 4 6 -7 -15 0
1 -2 -3 4 -5 -7 18 0
1 -3 -5 6 -14 0
1 -2 -3 4 -5 6 -17 0
1 -2 -3 4 -5 7 8 16 0
1 -2 4 -5 -6 8 -19 0
1 -2 -3 4 -5 -6 8 21 0
-2 4 -5 -6 8 23 0
1 -2 -3 4 -5 7 -8 -16 0
1 -2 -3 4 -5 -6 -8 19 0
-3 4 -5 -6 -8 -23 0
-2 4 -5 -6 7 -15 0
1 -2 -3 4 -5 -6 7 17 0
1 -2 -3 4 -5 -6 7 20 0
1 -2 -3 4 -6 -7 8 -16 0
1 -2 -3 4 -6 -7 -8 16 0
1 -2 -3 4 -5 -7 -8 -17 0
-2 4 -5 -6 -7 15 0
1 -2 -3 4 -5 -6 -7 -20 0
-2 -3 4 -5 -6 -7 22 0
1 -3 -5 -6 14 0
1 -2 -3 -4 6 8 -19 0
1 -2 -3 -4 5 6 8 21 0
-2 -3 -4 6 8 23 0
1 -2 -3 -4 5 6 -8 19 0
1 -2 -3 -4 5 6 -8 -21 0
1 -2 -3 -4 5 7 -15 0
1 -2 -3 -4 5 6 7 17 0
1 -3 -4 5 6 7 -18 0
1 -2 -3 -4 5 6 7 20 0
1 -3 -4 5 6 7 -22 0
1 -2 -3 5 -7 8 -16 0
1 -2 -3 -4 5 6 8 17 0
1 -2 -3 5 -7 -8 16 0
1 -3 -4 5 6 -7 -8 -17 0
1 -2 -3 -4 5 -7 15 0
1 -3 -4 5 6 -7 18 0
1 -2 -3 -4 5 -7 -20 0
-2 -3 -4 5 6 -7 22 0
1 -2 -3 -4 -6 7 8 19 0
1 -2 -3 -4 5 -6 8 -20 0
1 -2 -3 -4 -6 8 -21 0
-2 -3 5 -6 7 8 22 0
-3 -4 -6 7 8 -23 0
1 -2 -3 -4 -6 -8 -19 0
1 -2 -3 -4 5 7 -8 20 0
1 -2 -3 -4 5 -6 -8 21 0
1 -3 -4 5 7 -8 -22 0
-2 -3 -4 -6 -8 23 0
1 -2 -3 -4 -6 7 -17 0
1 -2 -3 -4 -6 8 -17 0
1 -2 -3 5 -6 -7 8 -18 0
-2 -3 5 -6 -7 8 -22 0
1 -2 -3 -4 5 -6 -7 -8 17 0
1 -2 -3 -4 5 -6 -8 18 0
-2 -3 -4 5 -7 -8 22 0
1 -2 -3 -4 5 -6 -7 -19 0
-2 -3 -4 5 -6 -7 23 0
1 -2 -4 -5 6 7 8 -16 0
1 -2 -3 -4 -5 7 8 -17 0
1 -2 -3 -4 -5 6 8 -18 0
1 -2 -3 -4 -5 7 8 -21 0
1 -2 -3 -4 -5 6 8 -22 0
1 -2 -4 -5 6 7 -8 16 0
1 -2 -4 -5 6 -8 17 0
1 -3 -4 -5 6 7 -8 18 0
1 -2 -4 -5 6 7 -8 21 0
-3 -4 -5 6 7 -8 22 0
1 -2 -3 -4 6 7 -15 0
1 -2 -3 -4 -5 6 7 -19 0
1 -3 -4 -5 6 7 -20 0
-2 -3 -4 -5 6 7 23 0
1 -2 -3 -4 -5 -7 8 16 0
1 -2 -3 -4 6 -7 8 21 0
1 -2 -3 -4 -5 -7 -8 -16 0
1 -2 -3 -4 6 -7 -8 19 0
1 -2 -3 -4 6 -7 -8 -21 0
1 -2 -3 -4 6 -7 15 0
1 -2 -3 -4 -5 6 -7 17 0
1 -3 -4 -5 6 -7 -18 0
1 -2 -3 -4 -5 6 -7 20 0
1 -3 -4 -5 6 -7 -22 0
1 -2 -3 -4 -5 -6 8 16 0
1 -2 -3 -4 -5 -6 8 19 0
1 -2 -3 -5 -6 7 8 20 0
-3 -4 -5 -6 8 -23 0
1 -2 -3 -4 -5 -6 -8 -16 0
1 -3 -4 -5 7 -8 -20 0
1 -2 -4 -5 -6 7 15 0
1 -2 -3 -5 -6 7 -18 0
1 -2 -3 -4 -5 -6 7 -21 0
1 -2 -3 -5 -6 7 -22 0
1 -2 -3 -4 -6 -7 8 -20 0
-2 -3 -5 -6 -7 8 22 0
1 -2 -3 -4 -5 -7 -8 20 0
1 -2 -3 -4 -6 -7 -8 21 0
1 -2 -3 -4 -5 -6 -8 -22 0
1 -2 -4 -5 -6 -7 -15 0
1 -2 -3 -5 -6 -7 18 0
1 -2 -3 -4 -5 -6 -17 0
-2 -3 -11 0
1 -2 10 0
1 -9 0
-1 2 3 4 5 8 -16 0
-1 2 3 4 6 8 -17 0
-1 2 3 4 5 7 8 18 0
-1 2 3 4 6 7 8 19 0
-1 2 3 4 5 6 8 -20 0
-1 2 3 4 6 8 -21 0
2 3 4 5 7 8 -22 0
-1 2 3 4 5 -8 16 0
-1 2 4 5 6 -8 17 0
-1 2 3 4 6 7 -8 -18 0
-1 2 3 4 6 -8 -19 0
-1 2 3 5 6 7 -8 20 0
-1 2 3 4 5 6 -8 21 0
-1 2 3 4 6 7 -8 22 0
-1 2 3 4 5 7 15 0
-1 3 4 5 -7 8 -18 0
-1 3 4 5 -7 8 22 0
-1 2 3 4 6 -7 -8 18 0
2 3 5 6 -7 -8 -22 0
-1 2 3 4 5 -7 -15 0
-1 2 3 4 5 6 -7 -19 0
-1 2 3 5 6 -7 -20 0
-1 3 4 5 6 14 0
-1 2 3 4 -6 8 17 0
-1 2 3 4 -6 7 8 -19 0
-1 2 3 4 -6 7 8 21 0
-1 2 4 5 -6 -8 -17 0
-1 2 3 4 -6 7 -8 19 0
-1 2 3 4 -6 -8 -21 0
-1 2 3 4 5 -6 7 18 0
-1 3 4 5 -6 7 -20 0
2 3 4 5 -6 7 -22 0
-1 2 4 5 -6 -7 8 19 0
-1 3 4 5 -6 -7 8 20 0
-1 2 3 4 5 -7 -8 -19 0
-1 2 3 4 5 -6 -8 -20 0
-1 3 4 5 -6 -7 -18 0
-1 2 3 4 5 -6 -7 -21 0
-1 3 4 5 -6 -7 22 0
-1 3 4 5 -6 -14 0
-1 2 4 5 -13 0
-1 2 3 4 -5 6 8 16 0
-1 2 3 4 -5 6 8 19 0
-1 2 3 4 -5 7 8 20 0
-1 2 3 4 -5 6 -8 -16 0
-1 2 3 -5 6 7 -8 -20 0
-1 2 3 4 6 7 15 0
-1 2 3 4 -5 7 -18 0
-1 2 3 4 -5 6 7 -21 0
-1 2 3 4 -5 7 22 0
-1 3 4 -5 -7 8 -20 0
2 3 4 -5 -7 8 -22 0
-1 2 3 -5 6 -7 -8 20 0
-1 2 3 4 6 -7 -8 21 0
-1 2 3 4 -5 6 -8 22 0
-1 2 3 4 6 -7 -15 0
-1 2 3 4 -5 -7 18 0
-1 2 3 -5 6 -14 0
-1 2 3 4 -5 6 -17 0
-1 3 4 -5 7 8 16 0
-1 2 3 4 -5 -6 8 -19 0
-1 2 3 4 -5 -6 8 21 0
-1 3 4 -5 7 -8 -16 0
-1 2 3 4 -5 -6 -8 19 0
-1 3 4 -5 -6 7 -15 0
-1 2 3 4 -5 -6 7 17 0
-1 2 3 4 -5 -6 7 20 0
-1 2 3 4 -6 -7 8 -16 0
-1 2 3 4 -6 -7 -8 16 0
-1 2 3 4 -5 -7 -8 -17 0
-1 3 4 -5 -6 -7 15 0
-1 3 4 -5 -6 -7 -20 0
2 3 4 -5 -6 -7 -22 0
-1 2 3 -5 -6 14 0
-1 2 4 -5 13 0
-1 4 -12 0
-1 2 3 -4 5 6 7 8 16 0
-1 2 3 -4 6 8 -19 0
-1 2 3 -4 5 6 8 21 0
-1 2 3 -4 5 6 7 -8 -16 0
-1 2 3 -4 5 6 -8 19 0
-1 2 -4 5 6 -8 -21 0
-1 2 -4 6 7 -15 0
-1 2 3 -4 5 6 7 17 0
-1 2 3 -4 5 6 7 -18 0
-1 2 3 -4 5 6 7 20 0
-1 2 3 5 -7 8 -16 0
-1 2 3 -4 5 6 8 17 0
-1 2 3 5 -7 -8 16 0
2 -4 5 6 -7 -8 -17 0
-1 2 -4 6 -7 15 0
-1 2 3 -4 5 6 -7 18 0
-1 2 3 -4 5 -7 -20 0
2 3 -4 5 6 -7 -22 0
-1 2 3 -4 6 -14 0
-1 2 3 5 -6 8 -16 0
-1 2 3 -4 -6 8 -17 0
-1 2 3 5 -6 7 8 18 0
-1 2 3 -4 -6 7 8 19 0
-1 2 3 -4 5 -6 8 -20 0
-1 2 3 -4 -6 8 -21 0
2 3 5 -6 7 8 -22 0
-1 2 3 5 -6 -8 16 0
-1 2 -4 5 -6 -8 17 0
-1 2 3 -4 5 7 -8 -18 0
-1 2 3 -4 -6 -8 -19 0
-1 2 3 -4 5 7 -8 20 0
-1 2 3 -4 5 -6 -8 21 0
-1 2 3 -4 -6 7 15 0
-1 3 5 -6 -7 8 -18 0
-1 3 5 -6 -7 8 22 0
-1 2 3 -4 5 -7 -8 18 0
2 3 -4 5 -7 -8 -22 0
-1 2 3 -4 -6 -7 -15 0
-1 2 3 -4 5 -6 -7 -19 0
-1 2 3 -4 -6 14 0
-1 2 3 -4 -5 6 7 8 -16 0
-1 2 3 -4 -5 7 8 -17 0
-1 2 3 -4 -5 6 8 -18 0
-1 2 3 -4 -5 7 8 -21 0
-1 2 3 -4 -5 6 8 22 0
-1 2 3 -4 -5 6 7 -8 16 0
-1 2 3 -4 -5 6 -8 17 0
-1 2 3 -4 -5 6 7 -8 18 0
-1 2 3 -4 -5 6 7 -8 21 0
2 3 -4 -5 6 7 -8 -22 0
-1 2 3 -4 -5 6 7 -19 0
-1 2 3 -4 -5 6 7 -20 0
-1 2 3 -4 -5 -7 8 16 0
-1 2 3 -4 6 -7 8 21 0
-1 2 3 -4 -5 -7 -8 -16 0
-1 2 3 -4 6 -7 -8 19 0
-1 2 -4 6 -7 -8 -21 0
-1 2 3 -4 -5 6 -7 17 0
-1 2 3 -4 -5 6 -7 -18 0
-1 2 3 -4 -5 6 -7 20 0
-1 2 3 -4 -5 -6 8 16 0
-1 2 3 -4 -5 -6 8 19 0
-1 2 3 -5 -6 7 8 20 0
-1 2 3 -4 -5 -6 -8 -16 0
-1 2 3 -4 -5 7 -8 -20 0
-1 2 3 -5 -6 7 -18 0
-1 2 3 -4 -5 -6 7 -21 0
-1 2 3 -5 -6 7 22 0
-1 2 3 -4 -6 -7 8 -20 0
2 3 -5 -6 -7 8 -22 0
-1 2 3 -4 -5 -7 -8 20 0
-1 2 3 -4 -6 -7 -8 21 0
-1 2 3 -4 -5 -6 -8 22 0
-1 2 3 -5 -6 -7 18 0
-1 2 3 -4 -5 -6 -17 0
-1 -4 12 0
-1 3 11 0
-1 2 -3 4 6 7 8 -16 0
-1 2 -3 4 5 7 8 -17 0
-1 2 -3 4 5 6 8 -18 0
-1 2 -3 4 5 7 8 -21 0
-1 2 -3 4 5 6 8 22 0
-1 2 -3 4 6 7 -8 16 0
-1 2 -3 4 6 -8 17 0
-1 2 -3 5 6 7 -8 18 0
-1 2 -3 4 6 7 -8 21 0
2 -3 5 6 7 -8 -22 0
-1 2 -3 5 6 7 -15 0
-1 2 -3 4 5 6 7 -19 0
-1 2 -3 5 6 7 -20 0
-1 2 -3 5 -7 8 16 0
2 -3 4 5 6 8 -19 0
2 -3 4 5 6 -7 8 21 0
-1 2 -3 5 -7 -8 -16 0
2 -3 4 5 6 -7 -8 19 0
-1 2 -3 5 6 -7 -8 -21 0
-1 2 -3 5 6 -7 15 0
-1 2 -3 4 5 6 -7 17 0
-1 2 -3 5 6 -7 -18 0
-1 2 -3 4 5 6 -7 20 0
-1 2 -3 5 6 -7 22 0
-1 -3 4 5 6 -14 0
-1 2 -3 4 5 -6 8 16 0
-1 2 -3 4 5 -6 8 19 0
-1 -3 4 5 -6 7 8 20 0
-1 2 -3 4 5 -6 -8 -16 0
2 -3 4 5 -6 -8 -19 0
-1 2 -3 5 7 -8 -20 0
2 -3 4 -6 7 15 0
-1 -3 4 5 -6 7 -18 0
-1 2 -3 4 5 -6 7 -21 0
-1 -3 4 5 -6 7 22 0
-1 -3 4 5 -6 -7 8 -20 0
2 -3 4 5 -6 8 -21 0
-1 2 -3 4 5 -7 -8 20 0
2 -3 4 5 -6 -7 -8 21 0
-1 2 -3 4 5 -6 -8 22 0
2 -3 4 -6 -7 -15 0
-1 -3 4 5 -6 -7 18 0
-1 -3 4 5 -6 14 0
-1 2 -3 4 5 -6 -17 0
-1 2 -3 4 -5 8 -16 0
-1 2 4 -5 6 8 -17 0
-1 2 -3 4 -5 7 8 18 0
-1 2 4 -5 6 7 8 19 0
-1 2 -3 4 -5 6 8 -20 0
-1 2 4 -5 6 8 -21 0
2 -3 4 -5 7 8 -22 0
-1 2 -3 4 -5 -8 16 0
-1 2 -3 -5 6 7 -8 -18 0
-1 2 4 -5 6 -8 -19 0
-1 2 -3 -5 6 7 -8 20 0
-1 2 -3 4 -5 6 -8 21 0
-1 2 -3 4 -5 7 15 0
-1 -3 4 -5 -7 8 -18 0
-1 -3 4 -5 -7 8 22 0
-1 2 -3 -5 6 -7 -8 18 0
2 -3 -5 6 -7 -8 -22 0
-1 2 -3 4 -5 -7 -15 0
-1 2 -3 4 -5 6 -7 -19 0
-1 2 -3 -5 6 -7 -20 0
-1 2 -3 -5 6 14 0
-1 2 4 -5 -6 8 17 0
-1 2 4 -5 -6 7 8 -19 0
-1 2 4 -5 -6 7 8 21 0
-1 2 -3 4 -6 -8 -17 0
-1 2 4 -5 -6 7 -8 19 0
-1 2 4 -5 -6 -8 -21 0
-1 2 -3 -5 -6 7 18 0
-1 -3 4 -5 -6 7 -20 0
2 -3 4 -5 -6 7 -22 0
-1 2 -3 4 -6 -7 8 19 0
-1 -3 4 -5 -6 -7 8 20 0
-1 2 -3 4 -5 -7 -8 -19 0
-1 2 -3 4 -5 -6 -8 -20 0
-1 -3 4 -5 -6 -7 -18 0
-1 2 -3 4 -5 -6 -7 -21 0
-1 -3 4 -5 -6 -7 22 0
-1 2 -3 -5 -6 -14 0
-1 2 -3 -4 5 7 8 -16 0
-1 2 -3 -4 6 7 8 17 0
-1 2 -3 -4 5 7 8 -19 0
-1 2 -3 -4 6 7 8 21 0
-1 2 -3 -4 5 7 -8 16 0
2 -3 -4 5 6 -8 -17 0
-1 2 -3 -4 6 7 -8 19 0
-1 2 -3 -4 6 -8 -21 0
-1 2 -3 -4 7 -15 0
-1 2 -3 -4 5 6 7 18 0
-1 2 -3 -4 5 7 -20 0
2 -3 -4 5 6 7 -22 0
2 -3 -4 5 6 -7 8 19 0
-1 2 -3 -4 5 -7 8 20 0
2 -3 -4 5 6 -7 -8 -19 0
-1 2 -3 -4 5 6 -8 -20 0
-1 2 -3 -4 -7 15 0
2 -3 -4 5 6 -7 -17 0
-1 2 -3 -4 5 -7 -18 0
-1 2 -3 -4 5 6 -7 -21 0
-1 2 -3 -4 5 -7 22 0
-1 2 -3 -4 6 14 0
-1 2 -4 -6 7 8 -17 0
-1 2 -3 -4 5 -6 8 -18 0
-1 2 -4 -6 7 8 -21 0
-1 2 -3 -4 5 -6 8 22 0
-1 2 -3 -4 5 7 -8 18 0
-1 2 -3 -4 -6 7 -8 21 0
2 -3 -4 5 7 -8 -22 0
-1 2 -3 -4 5 -6 7 -19 0
2 -3 -4 5 -6 8 -19 0
2 -3 -4 5 -6 -7 8 21 0
2 -3 -4 5 -6 -7 -8 19 0
-1 2 -3 -4 5 -7 -8 -21 0
-1 2 -3 -4 5 -6 -7 17 0
-1 2 -3 -4 5 -6 -7 20 0
-1 2 -3 -4 -6 -14 0
-1 2 -3 -4 -5 7 8 16 0
-1 2 -4 -5 6 8 -19 0
-1 2 -3 -4 -5 6 8 21 0
-1 2 -3 -4 -5 7 -8 -16 0
-1 2 -3 -4 -5 6 -8 19 0
-1 2 -3 -4 -5 6 7 17 0
-1 2 -3 -4 -5 6 7 -18 0
-1 2 -3 -4 -5 6 7 20 0
-1 2 -3 -5 -7 8 -16 0
2 -3 -4 -5 6 8 17 0
-1 2 -3 -5 -7 -8 16 0
2 -3 -4 6 -7 -8 -17 0
-1 2 -3 -4 -5 6 -7 18 0
-1 2 -3 -4 -5 -7 -20 0
2 -3 -4 -5 6 -7 -22 0
-1 2 -4 -5 -6 7 8 19 0
-1 2 -3 -4 -5 -6 8 -20 0
-1 2 -4 -5 -6 8 -21 0
2 -3 -5 -6 7 8 -22 0
-1 2 -4 -5 -6 -8 -19 0
-1 2 -3 -4 -5 7 -8 20 0
-1 2 -3 -4 -5 -6 -8 21 0
-1 2 -4 -5 -6 7 -17 0
-1 2 -4 -5 -6 8 -17 0
-1 2 -3 -4 -6 -7 8 -18 0
-1 2 -3 -4 -6 -7 8 22 0
-1 2 -3 -4 -6 -7 -8 17 0
-1 2 -3 -4 -5 -6 -8 18 0
2 -3 -4 -5 -7 -8 -22 0
-1 2 -3 -4 -5 -6 -7 -19 0
-1 -3 -11 0
-1 2 10 0
-1 -2 3 5 7 8 -16 0
-1 -2 3 4 6 7 8 17 0
-1 -2 3 4 5 7 8 -19 0
-1 -2 3 4 6 7 8 21 0
-1 -2 3 5 7 -8 16 0
-1 -2 4 5 6 -8 -17 0
-1 -2 3 4 6 7 -8 19 0
-1 -2 3 4 6 -8 -21 0
-1 -2 3 4 7 -15 0
-1 -2 3 4 5 6 7 18 0
-1 -2 3 4 5 7 -20 0
-2 3 4 5 6 7 -22 0
-1 -2 3 4 5 -7 8 16 0
-1 -2 4 5 6 -7 8 19 0
-1 -2 3 4 5 -7 8 20 0
-1 -2 3 4 5 -7 -8 -16 0
-1 -2 3 5 6 -7 -8 -19 0
-1 -2 3 4 5 6 -8 -20 0
-1 -2 3 4 -7 15 0
-1 -2 4 5 6 -7 -17 0
-1 -2 3 4 5 -7 -18 0
-1 -2 3 4 5 6 -7 -21 0
-1 -2 3 4 5 -7 22 0
-1 -2 3 4 6 14 0
-1 -2 3 4 -6 7 8 -17 0
-1 -2 3 4 5 -6 8 -18 0
-1 -2 3 4 -6 7 8 -21 0
-1 -2 3 4 5 -6 8 22 0
-1 -2 3 4 5 -6 -8 17 0
-1 -2 3 4 5 7 -8 18 0
-1 -2 3 4 -6 7 -8 21 0
-2 3 4 5 7 -8 -22 0
-1 -2 3 4 5 -6 7 -19 0
-1 -2 4 5 -6 8 -19 0
-1 -2 4 5 -6 -7 8 21 0
-1 -2 4 5 -6 -7 -8 19 0
-1 -2 3 4 5 -7 -8 -21 0
-1 -2 3 4 5 -6 -7 17 0
-1 -2 3 4 5 -6 -7 20 0
-1 -2 3 4 -6 -14 0
-1 -2 4 5 13 0
-1 -2 3 -5 7 8 16 0
-1 -2 3 4 -5 6 8 -19 0
-1 -2 3 4 -5 6 8 21 0
-1 -2 3 -5 7 -8 -16 0
-1 -2 3 4 -5 6 -8 19 0
-1 -2 3 4 -5 6 7 17 0
-1 -2 3 -5 6 7 -18 0
-1 -2 3 4 -5 6 7 20 0
-1 -2 3 -5 6 7 22 0
-1 -2 3 4 -5 -7 8 -16 0
-1 -2 4 -5 6 8 17 0
-1 -2 3 4 -5 -7 -8 16 0
-1 -2 4 6 -7 -8 -17 0
-1 -2 3 -5 6 -7 18 0
-1 -2 3 4 -5 -7 -20 0
-2 3 4 -5 6 -7 -22 0
-1 -2 3 4 -5 -6 7 8 19 0
-1 -2 3 4 -5 -6 8 -20 0
-1 -2 3 4 -5 -6 8 -21 0
-2 3 4 -5 -6 7 8 -22 0
-1 -2 3 4 -5 -6 -8 -19 0
-1 -2 3 4 -5 7 -8 20 0
-1 -2 3 4 -5 -6 -8 21 0
-1 -2 3 -5 7 -8 22 0
-1 -2 3 4 -5 -6 7 -17 0
-1 -2 3 4 -5 -6 7 18 0
-1 -2 3 4 -5 -6 8 -17 0
-1 -2 3 4 -6 -7 8 -18 0
-1 -2 3 4 -6 -7 8 22 0
-1 -2 3 4 -6 -7 -8 17 0
-1 -2 3 4 -5 -6 -8 18 0
-2 3 4 -5 -7 -8 -22 0
-1 -2 3 4 -5 -6 -7 -19 0
-1 -2 4 -5 -13 0
-1 -2 3 -4 5 8 -16 0
-1 -2 3 -4 6 8 -17 0
-1 -2 3 -4 5 7 8 18 0
-1 -2 3 -4 6 7 8 19 0
-1 -2 3 -4 5 6 8 -20 0
-1 -2 3 -4 6 8 -21 0
-2 3 -4 5 7 8 -22 0
-1 -2 3 -4 5 -8 16 0
-1 -2 -4 5 6 -8 17 0
-1 -2 3 -4 6 7 -8 -18 0
-1 -2 3 -4 6 -8 -19 0
-1 3 -4 5 6 7 -8 20 0
-1 -2 3 -4 5 6 -8 21 0
-1 -2 3 -4 6 7 -8 22 0
-1 -2 3 -4 5 7 15 0
-1 -2 3 5 -7 8 -18 0
-1 -2 3 5 -7 8 22 0
-1 -2 3 -4 6 -7 -8 18 0
3 -4 5 6 -7 -8 -22 0
-1 -2 3 -4 5 -7 -15 0
-1 -2 3 -4 5 6 -7 -19 0
-1 3 -4 5 6 -7 -20 0
-1 -2 3 5 6 14 0
-1 -2 3 -4 -6 8 17 0
-1 -2 3 -4 -6 7 8 -19 0
-1 -2 3 -4 -6 7 8 21 0
-1 -2 -4 5 -6 -8 -17 0
-1 -2 3 -4 -6 7 -8 19 0
-1 -2 3 -4 -6 -8 -21 0
-1 -2 3 -4 5 -6 7 18 0
-1 -2 3 5 -6 7 -20 0
-2 3 -4 5 -6 7 -22 0
-1 -2 -4 5 -6 -7 8 19 0
-1 -2 3 5 -6 -7 8 20 0
-1 -2 3 -4 5 -7 -8 -19 0
-1 -2 3 -4 5 -6 -8 -20 0
-1 -2 3 5 -6 -7 -18 0
-1 -2 3 -4 5 -6 -7 -21 0
-1 -2 3 5 -6 -7 22 0
-1 -2 3 5 -6 -14 0
-2 -4 5 -13 0
-1 -2 3 -4 -5 6 8 16 0
-1 -2 3 -4 -5 6 8 19 0
-1 -2 3 -4 -5 7 8 20 0
-1 -2 3 -4 -5 6 -8 -16 0
-1 3 -4 -5 6 7 -8 -20 0
-1 -2 3 -4 6 7 15 0
-1 -2 3 -4 -5 7 -18 0
-1 -2 3 -4 -5 6 7 -21 0
-1 -2 3 -4 -5 7 22 0
-1 -2 3 -5 -7 8 -20 0
-2 3 -4 -5 -7 8 -22 0
-1 3 -4 -5 6 -7 -8 20 0
-1 -2 3 -4 6 -7 -8 21 0
-1 -2 3 -4 -5 6 -8 22 0
-1 -2 3 -4 6 -7 -15 0
-1 -2 3 -4 -5 -7 18 0
-1 3 -4 -5 6 -14 0
-1 -2 3 -4 -5 6 -17 0
-1 -2 3 -4 -5 -6 8 -19 0
-1 -2 3 -4 -5 -6 8 21 0
-1 -2 3 -4 -5 -6 -8 19 0
-1 -2 3 -5 -6 7 -15 0
-1 -2 3 -4 -5 -6 7 17 0
-1 -2 3 -4 -5 -6 7 20 0
-1 -2 3 -4 -6 -7 8 -16 0
-1 -2 3 -4 -6 -7 -8 16 0
-1 -2 3 -4 -5 -7 -8 -17 0
-1 -2 3 -5 -6 -7 15 0
-1 -2 3 -5 -6 -7 -20 0
-2 3 -4 -5 -6 -7 -22 0
-1 3 -4 -5 -6 14 0
-2 -4 -5 13 0
-1 -2 -3 4 5 6 8 16 0
-1 -2 -3 4 5 6 8 19 0
-1 -2 -3 4 5 7 8 20 0
-1 -2 -3 4 5 6 -8 -16 0
-2 -3 4 5 6 -8 -19 0
-1 -2 -3 4 6 7 -8 -20 0
-1 -2 -3 4 5 7 -18 0
-1 -2 -3 4 5 6 7 -21 0
-1 -2 -3 4 5 7 22 0
-1 -2 -3 4 5 -7 8 -20 0
-2 -3 4 5 6 8 -21 0
-1 -2 -3 5 6 -7 -8 20 0
-2 -3 4 5 6 -7 -8 21 0
-1 -2 -3 4 5 6 -8 22 0
-1 -2 -3 4 5 -7 18 0
-1 -2 -3 4 6 -14 0
-1 -2 -3 4 5 6 -17 0
-1 -2 -3 4 5 7 8 16 0
-1 -2 -3 4 -6 8 -19 0
-1 -2 -3 4 5 -6 8 21 0
-1 -2 -3 4 5 7 -8 -16 0
-1 -2 -3 4 5 -6 -8 19 0
-2 -3 4 5 -6 -8 -21 0
-1 -2 4 -6 7 -15 0
-1 -2 -3 4 5 -6 7 17 0
-1 -2 -3 4 5 -6 7 20 0
-2 -3 4 5 -6 -7 8 -16 0
-2 -3 4 5 -6 8 17 0
-2 -3 4 5 -6 -7 -8 16 0
-1 -2 -3 4 5 -7 -8 -17 0
-1 -2 4 -6 -7 15 0
-1 -2 -3 4 5 -6 -7 -20 0
-1 -2 -3 4 -6 14 0
-1 -2 -3 -5 6 8 -16 0
-1 -2 -3 4 -5 7 8 -19 0
-1 -2 4 -5 6 7 8 21 0
-1 -2 -3 -5 6 -8 16 0
-1 -2 -3 4 6 -8 -17 0
-1 -2 4 -5 6 7 -8 19 0
-1 -2 4 -5 6 -8 -21 0
-1 -2 -3 4 -5 6 7 18 0
-1 -2 -3 4 -5 7 -20 0
-2 -3 4 -5 6 7 -22 0
-1 -2 -3 4 6 -7 8 19 0
-1 -2 -3 4 -5 -7 8 20 0
-2 -3 4 6 -7 -8 -19 0
-1 -2 -3 4 -5 6 -8 -20 0
-1 -2 -3 4 -5 -7 -18 0
-1 -2 -3 4 -5 6 -7 -21 0
-1 -2 -3 4 -5 -7 22 0
-1 -2 -3 -5 7 8 -16 0
-1 -2 4 -5 -6 7 8 -17 0
-1 -2 -3 4 -5 -6 8 -18 0
-1 -2 4 -5 -6 7 8 -21 0
-1 -2 -3 4 -5 -6 8 22 0
-1 -2 -3 -5 7 -8 16 0
-1 -2 -3 4 -5 -6 -8 17 0
-1 -2 -3 4 -5 7 -8 18 0
-1 -2 4 -5 -6 7 -8 21 0
-2 -3 4 -5 7 -8 -22 0
-1 -2 -3 4 -5 -6 7 -19 0
-1 -2 -3 4 -5 -6 -7 8 16 0
-1 -2 -3 4 -6 -7 8 21 0
-1 -2 -3 4 -5 -6 -7 -8 -16 0
-1 -2 -3 4 -6 -7 -8 19 0
-1 -2 -3 4 -5 -7 -8 -21 0
-1 -2 -3 4 -5 -6 -7 17 0
-1 -2 -3 4 -5 -6 -7 20 0
-1 -2 -3 -4 6 7 8 -16 0
-1 -2 -3 -4 5 7 8 -17 0
-1 -2 -3 -4 5 6 8 -18 0
-1 -2 -3 -4 5 7 8 -21 0
-1 -2 -3 -4 5 6 8 22 0
-1 -2 -3 -4 6 7 -8 16 0
-1 -2 -3 -4 6 -8 17 0
-1 -3 -4 5 6 7 -8 18 0
-1 -2 -3 -4 6 7 -8 21 0
-3 -4 5 6 7 -8 -22 0
-1 -3 -4 5 6 7 -15 0
-1 -2 -3 -4 5 6 7 -19 0
-1 -3 -4 5 6 7 -20 0
-1 -3 -4 5 -7 8 16 0
-2 -3 -4 5 6 8 -19 0
-2 -3 -4 5 6 -7 8 21 0
-1 -3 -4 5 -7 -8 -16 0
-2 -3 -4 5 6 -7 -8 19 0
-1 -3 -4 5 6 -7 -8 -21 0
-1 -3 -4 5 6 -7 15 0
-1 -2 -3 -4 5 6 -7 17 0
-1 -3 -4 5 6 -7 -18 0
-1 -2 -3 -4 5 6 -7 20 0
-1 -3 -4 5 6 -7 22 0
-1 -2 -3 5 6 -14 0
-1 -2 -3 -4 5 -6 8 16 0
-1 -2 -3 -4 5 -6 8 19 0
-1 -2 -3 5 -6 7 8 20 0
-1 -2 -3 -4 5 -6 -8 -16 0
-2 -3 -4 5 -6 -8 -19 0
-1 -3 -4 5 7 -8 -20 0
-1 -2 -3 -4 -6 7 15 0
-1 -2 -3 5 -6 7 -18 0
-1 -2 -3 -4 5 -6 7 -21 0
-1 -2 -3 5 -6 7 22 0
-1 -2 -3 5 -6 -7 8 -20 0
-2 -3 -4 5 -6 8 -21 0
-1 -2 -3 -4 5 -7 -8 20 0
-2 -3 -4 5 -6 -7 -8 21 0
-1 -2 -3 -4 5 -6 -8 22 0
-1 -2 -3 -4 -6 -7 -15 0
-1 -2 -3 5 -6 -7 18 0
-1 -2 -3 5 -6 14 0
-1 -2 -3 -4 5 -6 -17 0
-1 -2 -3 -4 -5 8 -16 0
-1 -2 -4 -5 6 8 -17 0
-1 -2 -3 -4 -5 7 8 18 0
-1 -2 -4 -5 6 7 8 19 0
-1 -2 -3 -4 -5 6 8 -20 0
-1 -2 -4 -5 6 8 -21 0
-2 -3 -4 -5 7 8 -22 0
-1 -2 -3 -4 -5 -8 16 0
-1 -2 -4 -5 6 7 -8 -18 0
-1 -2 -4 -5 6 -8 -19 0
-1 -3 -4 -5 6 7 -8 20 0
-1 -2 -3 -4 -5 6 -8 21 0
-1 -2 -4 -5 6 7 -8 22 0
-1 -2 -3 -4 -5 7 15 0
-1 -2 -3 -5 -7 8 -18 0
-1 -2 -3 -5 -7 8 22 0
-1 -2 -4 -5 6 -7 -8 18 0
-3 -4 -5 6 -7 -8 -22 0
-1 -2 -3 -4 -5 -7 -15 0
-1 -2 -3 -4 -5 6 -7 -19 0
-1 -3 -4 -5 6 -7 -20 0
-1 -3 -4 -5 6 14 0
-1 -2 -4 -5 -6 8 17 0
-1 -2 -3 -5 -6 7 8 -19 0
-1 -2 -4 -5 -6 7 8 21 0
-1 -2 -3 -4 -6 -8 -17 0
-1 -2 -4 -5 -6 7 -8 19 0
-1 -2 -4 -5 -6 -8 -21 0
-1 -3 -4 -5 -6 7 18 0
-1 -2 -3 -5 -6 7 -20 0
-2 -3 -4 -5 -6 7 -22 0
-1 -2 -3 -4 -6 -7 8 19 0
-1 -2 -3 -5 -6 -7 8 20 0
-1 -2 -3 -4 -5 -7 -8 -19 0
-1 -2 -3 -4 -5 -6 -8 -20 0
-1 -2 -3 -5 -6 -7 -18 0
-1 -2 -3 -4 -5 -6 -7 -21 0
-1 -2 -3 -5 -6 -7 22 0
-1 -3 -4 -5 -6 -14 0
-1 -2 -10 0
-1 9 0
